<instance format="XCSP3" type="CSP">
  <variables>
    <array id="x" size="[120]"> 0..119 </array>
  </variables>
  <constraints>
    <allDifferent> x[] </allDifferent>
    <group>
      <extension>
        <list> %0 %1 </list>
        <supports> (0,4)(0,14)(0,20)(0,88)(0,112)(1,5)(1,40)(1,53)(1,54)(2,21)(2,30)(2,66)(2,70)(2,114)(3,11)(3,83)(3,95)(3,98)(3,106)(4,0)(4,33)(4,52)(4,75)(5,1)(5,23)(5,54)(5,59)(5,91)(6,9)(6,24)(6,27)(6,50)(6,63)(6,74)(6,119)(7,37)(7,45)(7,70)(7,97)(7,99)(7,103)(8,37)(8,50)(8,69)(8,100)(8,118)(9,6)(9,34)(9,35)(9,63)(9,117)(9,119)(10,12)(10,29)(10,53)(10,86)(11,3)(11,28)(11,34)(11,67)(11,87)(11,96)(12,10)(12,13)(12,29)(12,53)(12,76)(13,12)(13,23)(13,40)(13,53)(13,76)(14,0)(14,36)(14,38)(14,65)(14,87)(14,111)(15,25)(15,26)(15,33)(15,88)(15,112)(16,32)(16,41)(16,68)(16,78)(16,100)(16,102)(16,114)(17,26)(17,52)(17,70)(17,72)(17,83)(17,97)(18,28)(18,79)(18,89)(18,101)(18,113)(18,116)(19,55)(19,56)(19,64)(19,66)(19,93)(20,0)(20,24)(20,47)(20,74)(20,119)(21,2)(21,66)(21,73)(21,89)(21,102)(22,34)(22,37)(22,43)(22,56)(22,58)(22,94)(22,116)(23,5)(23,13)(23,59)(23,76)(24,6)(24,20)(24,27)(24,30)(24,47)(24,49)(24,82)(25,15)(25,50)(25,55)(25,71)(25,75)(25,91)(26,15)(26,17)(26,46)(26,94)(26,112)(27,6)(27,24)(27,74)(27,88)(27,108)(27,119)(28,11)(28,18)(28,36)(28,73)(28,94)(29,10)(29,12)(29,40)(29,54)(29,92)(30,2)(30,24)(30,69)(30,105)(30,109)(31,35)(31,77)(31,78)(31,84)(31,100)(31,109)(31,114)(32,16)(32,50)(32,68)(32,90)(32,109)(32,115)(33,4)(33,15)(33,64)(33,71)(33,75)(33,105)(34,9)(34,11)(34,22)(34,79)(34,88)(35,9)(35,31)(35,110)(35,114)(35,115)(36,14)(36,28)(36,51)(36,56)(36,103)(36,107)(37,7)(37,8)(37,22)(37,69)(37,80)(37,115)(38,14)(38,58)(38,89)(38,97)(38,116)(39,44)(39,45)(39,65)(39,72)(39,80)(39,106)(40,1)(40,13)(40,29)(40,59)(41,16)(41,89)(41,104)(41,105)(42,69)(42,96)(42,101)(42,104)(42,110)(43,22)(43,75)(43,96)(43,102)(44,39)(44,51)(44,81)(44,85)(44,116)(45,7)(45,39)(45,73)(45,81)(45,101)(45,103)(46,26)(46,56)(46,58)(46,79)(47,20)(47,24)(47,74)(47,82)(47,113)(47,117)(48,60)(48,62)(48,84)(48,98)(48,106)(48,108)(48,112)(49,24)(49,50)(49,62)(49,77)(49,98)(50,6)(50,8)(50,25)(50,32)(50,49)(50,93)(51,36)(51,44)(51,58)(51,72)(51,99)(52,4)(52,17)(52,72)(52,85)(52,103)(52,111)(53,1)(53,10)(53,12)(53,13)(54,1)(54,5)(54,29)(54,86)(55,19)(55,25)(55,71)(55,83)(55,92)(56,19)(56,22)(56,36)(56,46)(57,69)(57,100)(57,105)(57,109)(57,114)(58,22)(58,38)(58,46)(58,51)(58,64)(58,65)(59,5)(59,23)(59,40)(59,76)(59,91)(60,48)(60,77)(60,98)(60,106)(61,79)(61,93)(61,95)(61,102)(61,113)(62,48)(62,49)(62,92)(62,98)(62,102)(63,6)(63,9)(63,83)(63,118)(63,119)(64,19)(64,33)(64,58)(64,75)(64,94)(64,111)(65,14)(65,39)(65,58)(65,67)(65,73)(65,80)(65,94)(66,2)(66,19)(66,21)(66,89)(66,90)(66,103)(67,11)(67,65)(67,68)(67,100)(67,108)(67,110)(68,16)(68,32)(68,67)(68,110)(69,8)(69,30)(69,37)(69,42)(69,57)(70,2)(70,7)(70,17)(70,85)(71,25)(71,33)(71,55)(71,82)(71,96)(71,108)(72,17)(72,39)(72,51)(72,52)(72,99)(72,107)(73,21)(73,28)(73,45)(73,65)(73,80)(73,118)(74,6)(74,20)(74,27)(74,47)(74,82)(74,84)(75,4)(75,25)(75,33)(75,43)(75,64)(76,12)(76,13)(76,23)(76,59)(76,86)(77,31)(77,49)(77,60)(77,84)(77,95)(78,16)(78,31)(78,84)(78,87)(79,18)(79,34)(79,46)(79,61)(79,85)(80,37)(80,39)(80,65)(80,73)(80,118)(81,44)(81,45)(81,85)(81,103)(81,113)(81,117)(81,118)(82,24)(82,47)(82,71)(82,74)(82,117)(83,3)(83,17)(83,55)(83,63)(84,31)(84,48)(84,74)(84,77)(84,78)(84,108)(85,44)(85,52)(85,70)(85,79)(85,81)(85,97)(86,10)(86,54)(86,76)(86,91)(87,11)(87,14)(87,78)(87,88)(87,99)(88,0)(88,15)(88,27)(88,34)(88,87)(89,18)(89,21)(89,38)(89,41)(89,66)(90,32)(90,66)(90,97)(90,104)(90,110)(91,5)(91,25)(91,59)(91,86)(92,29)(92,55)(92,62)(92,95)(93,19)(93,50)(93,61)(93,116)(93,117)(94,22)(94,26)(94,28)(94,64)(94,65)(94,107)(95,3)(95,61)(95,77)(95,92)(95,106)(96,11)(96,42)(96,43)(96,71)(96,107)(96,110)(97,7)(97,17)(97,38)(97,85)(97,90)(97,99)(98,3)(98,48)(98,49)(98,60)(98,62)(99,7)(99,51)(99,72)(99,87)(99,97)(99,111)(100,8)(100,16)(100,31)(100,57)(100,67)(100,109)(101,18)(101,42)(101,45)(101,103)(101,113)(102,16)(102,21)(102,43)(102,61)(102,62)(102,104)(103,7)(103,36)(103,45)(103,52)(103,66)(103,81)(103,101)(104,41)(104,42)(104,90)(104,102)(104,111)(104,116)(105,30)(105,33)(105,41)(105,57)(105,115)(106,3)(106,39)(106,48)(106,60)(106,95)(106,109)(107,36)(107,72)(107,94)(107,96)(107,111)(107,112)(108,27)(108,48)(108,67)(108,71)(108,84)(108,119)(109,30)(109,31)(109,32)(109,57)(109,100)(109,106)(110,35)(110,42)(110,67)(110,68)(110,90)(110,96)(111,14)(111,52)(111,64)(111,99)(111,104)(111,107)(112,0)(112,15)(112,26)(112,48)(112,107)(113,18)(113,47)(113,61)(113,81)(113,101)(114,2)(114,16)(114,31)(114,35)(114,57)(115,32)(115,35)(115,37)(115,105)(115,118)(116,18)(116,22)(116,38)(116,44)(116,93)(116,104)(117,9)(117,47)(117,81)(117,82)(117,93)(118,8)(118,63)(118,73)(118,80)(118,81)(118,115)(119,6)(119,9)(119,20)(119,27)(119,63)(119,108) </supports>
      </extension>
      <args> x[0] x[1] </args>
      <args> x[0] x[5] </args>
      <args> x[0] x[20] </args>
      <args> x[0] x[60] </args>
      <args> x[1] x[2] </args>
      <args> x[1] x[21] </args>
      <args> x[1] x[61] </args>
      <args> x[2] x[3] </args>
      <args> x[2] x[7] </args>
      <args> x[2] x[62] </args>
      <args> x[3] x[4] </args>
      <args> x[3] x[8] </args>
      <args> x[3] x[23] </args>
      <args> x[4] x[9] </args>
      <args> x[4] x[24] </args>
      <args> x[4] x[64] </args>
      <args> x[5] x[6] </args>
      <args> x[5] x[10] </args>
      <args> x[5] x[65] </args>
      <args> x[6] x[7] </args>
      <args> x[6] x[11] </args>
      <args> x[6] x[66] </args>
      <args> x[7] x[8] </args>
      <args> x[7] x[67] </args>
      <args> x[8] x[9] </args>
      <args> x[8] x[13] </args>
      <args> x[9] x[14] </args>
      <args> x[9] x[69] </args>
      <args> x[10] x[11] </args>
      <args> x[10] x[15] </args>
      <args> x[10] x[30] </args>
      <args> x[11] x[12] </args>
      <args> x[11] x[16] </args>
      <args> x[12] x[13] </args>
      <args> x[12] x[17] </args>
      <args> x[12] x[32] </args>
      <args> x[13] x[14] </args>
      <args> x[13] x[33] </args>
      <args> x[14] x[19] </args>
      <args> x[14] x[34] </args>
      <args> x[15] x[16] </args>
      <args> x[15] x[35] </args>
      <args> x[15] x[75] </args>
      <args> x[16] x[17] </args>
      <args> x[16] x[76] </args>
      <args> x[17] x[18] </args>
      <args> x[17] x[37] </args>
      <args> x[18] x[19] </args>
      <args> x[18] x[38] </args>
      <args> x[18] x[78] </args>
      <args> x[19] x[39] </args>
      <args> x[19] x[79] </args>
      <args> x[20] x[21] </args>
      <args> x[20] x[25] </args>
      <args> x[20] x[40] </args>
      <args> x[21] x[22] </args>
      <args> x[21] x[41] </args>
      <args> x[22] x[23] </args>
      <args> x[22] x[27] </args>
      <args> x[22] x[42] </args>
      <args> x[23] x[24] </args>
      <args> x[23] x[28] </args>
      <args> x[24] x[29] </args>
      <args> x[24] x[44] </args>
      <args> x[25] x[26] </args>
      <args> x[25] x[30] </args>
      <args> x[25] x[45] </args>
      <args> x[26] x[27] </args>
      <args> x[26] x[31] </args>
      <args> x[26] x[46] </args>
      <args> x[27] x[28] </args>
      <args> x[27] x[47] </args>
      <args> x[28] x[29] </args>
      <args> x[28] x[33] </args>
      <args> x[29] x[34] </args>
      <args> x[29] x[49] </args>
      <args> x[30] x[31] </args>
      <args> x[30] x[35] </args>
      <args> x[31] x[32] </args>
      <args> x[31] x[36] </args>
      <args> x[32] x[33] </args>
      <args> x[32] x[37] </args>
      <args> x[33] x[34] </args>
      <args> x[34] x[39] </args>
      <args> x[35] x[36] </args>
      <args> x[35] x[55] </args>
      <args> x[36] x[37] </args>
      <args> x[36] x[56] </args>
      <args> x[37] x[38] </args>
      <args> x[38] x[39] </args>
      <args> x[38] x[58] </args>
      <args> x[39] x[59] </args>
      <args> x[40] x[41] </args>
      <args> x[40] x[45] </args>
      <args> x[40] x[100] </args>
      <args> x[41] x[42] </args>
      <args> x[41] x[101] </args>
      <args> x[42] x[43] </args>
      <args> x[42] x[47] </args>
      <args> x[43] x[44] </args>
      <args> x[43] x[48] </args>
      <args> x[43] x[103] </args>
      <args> x[44] x[49] </args>
      <args> x[44] x[104] </args>
      <args> x[45] x[46] </args>
      <args> x[45] x[50] </args>
      <args> x[46] x[47] </args>
      <args> x[46] x[51] </args>
      <args> x[47] x[48] </args>
      <args> x[48] x[49] </args>
      <args> x[48] x[53] </args>
      <args> x[49] x[54] </args>
      <args> x[50] x[51] </args>
      <args> x[50] x[55] </args>
      <args> x[50] x[110] </args>
      <args> x[51] x[52] </args>
      <args> x[51] x[56] </args>
      <args> x[52] x[53] </args>
      <args> x[52] x[57] </args>
      <args> x[52] x[112] </args>
      <args> x[53] x[54] </args>
      <args> x[53] x[113] </args>
      <args> x[54] x[59] </args>
      <args> x[54] x[114] </args>
      <args> x[55] x[56] </args>
      <args> x[55] x[115] </args>
      <args> x[56] x[57] </args>
      <args> x[57] x[58] </args>
      <args> x[57] x[117] </args>
      <args> x[58] x[59] </args>
      <args> x[58] x[118] </args>
      <args> x[59] x[119] </args>
      <args> x[60] x[61] </args>
      <args> x[60] x[65] </args>
      <args> x[60] x[80] </args>
      <args> x[61] x[62] </args>
      <args> x[61] x[81] </args>
      <args> x[62] x[63] </args>
      <args> x[62] x[67] </args>
      <args> x[63] x[64] </args>
      <args> x[63] x[68] </args>
      <args> x[63] x[83] </args>
      <args> x[64] x[69] </args>
      <args> x[64] x[84] </args>
      <args> x[65] x[66] </args>
      <args> x[65] x[70] </args>
      <args> x[66] x[67] </args>
      <args> x[66] x[71] </args>
      <args> x[67] x[68] </args>
      <args> x[68] x[69] </args>
      <args> x[68] x[73] </args>
      <args> x[69] x[74] </args>
      <args> x[70] x[71] </args>
      <args> x[70] x[75] </args>
      <args> x[70] x[90] </args>
      <args> x[71] x[72] </args>
      <args> x[71] x[76] </args>
      <args> x[72] x[73] </args>
      <args> x[72] x[77] </args>
      <args> x[72] x[92] </args>
      <args> x[73] x[74] </args>
      <args> x[73] x[93] </args>
      <args> x[74] x[79] </args>
      <args> x[74] x[94] </args>
      <args> x[75] x[76] </args>
      <args> x[75] x[95] </args>
      <args> x[76] x[77] </args>
      <args> x[77] x[78] </args>
      <args> x[77] x[97] </args>
      <args> x[78] x[79] </args>
      <args> x[78] x[98] </args>
      <args> x[79] x[99] </args>
      <args> x[80] x[81] </args>
      <args> x[80] x[85] </args>
      <args> x[80] x[100] </args>
      <args> x[81] x[82] </args>
      <args> x[81] x[101] </args>
      <args> x[82] x[83] </args>
      <args> x[82] x[87] </args>
      <args> x[82] x[102] </args>
      <args> x[83] x[84] </args>
      <args> x[83] x[88] </args>
      <args> x[84] x[89] </args>
      <args> x[84] x[104] </args>
      <args> x[85] x[86] </args>
      <args> x[85] x[90] </args>
      <args> x[85] x[105] </args>
      <args> x[86] x[87] </args>
      <args> x[86] x[91] </args>
      <args> x[86] x[106] </args>
      <args> x[87] x[88] </args>
      <args> x[87] x[107] </args>
      <args> x[88] x[89] </args>
      <args> x[88] x[93] </args>
      <args> x[89] x[94] </args>
      <args> x[89] x[109] </args>
      <args> x[90] x[91] </args>
      <args> x[90] x[95] </args>
      <args> x[91] x[92] </args>
      <args> x[91] x[96] </args>
      <args> x[92] x[93] </args>
      <args> x[92] x[97] </args>
      <args> x[93] x[94] </args>
      <args> x[94] x[99] </args>
      <args> x[95] x[96] </args>
      <args> x[95] x[115] </args>
      <args> x[96] x[97] </args>
      <args> x[96] x[116] </args>
      <args> x[97] x[98] </args>
      <args> x[98] x[99] </args>
      <args> x[98] x[118] </args>
      <args> x[99] x[119] </args>
      <args> x[100] x[101] </args>
      <args> x[100] x[105] </args>
      <args> x[101] x[102] </args>
      <args> x[102] x[103] </args>
      <args> x[102] x[107] </args>
      <args> x[103] x[104] </args>
      <args> x[103] x[108] </args>
      <args> x[104] x[109] </args>
      <args> x[105] x[106] </args>
      <args> x[105] x[110] </args>
      <args> x[106] x[107] </args>
      <args> x[106] x[111] </args>
      <args> x[107] x[108] </args>
      <args> x[108] x[109] </args>
      <args> x[108] x[113] </args>
      <args> x[109] x[114] </args>
      <args> x[110] x[111] </args>
      <args> x[110] x[115] </args>
      <args> x[111] x[112] </args>
      <args> x[111] x[116] </args>
      <args> x[112] x[113] </args>
      <args> x[112] x[117] </args>
      <args> x[113] x[114] </args>
      <args> x[114] x[119] </args>
      <args> x[115] x[116] </args>
      <args> x[116] x[117] </args>
      <args> x[117] x[118] </args>
      <args> x[118] x[119] </args>
    </group>
  </constraints>
</instance>
